
Gurobi 6.5.0 (win64) logging started 02/15/16 14:48:42


Gurobi 6.5.0 (win64) logging started 02/16/16 13:15:38


Gurobi 6.5.0 (win64) logging started 02/16/16 13:27:26

Optimize a model with 2 rows, 5 columns and 8 nonzeros
Coefficient statistics:
  Matrix range    [1e+00, 3e+00]
  Objective range [1e+01, 3e+01]
  Bounds range    [0e+00, 0e+00]
  RHS range       [1e+01, 2e+01]
Presolve removed 0 rows and 3 columns
Presolve time: 0.02s
Presolved: 2 rows, 2 columns, 4 nonzeros

Iteration    Objective       Primal Inf.    Dual Inf.      Time
       0    0.0000000e+00   1.650000e+01   0.000000e+00      0s
       2    1.3100000e+02   0.000000e+00   0.000000e+00      0s

Solved in 2 iterations and 0.03 seconds
Optimal objective  1.310000000e+02
